p cnf 346 1665
c p weight 38 0 0
c p weight -38 1 0
c p weight 39 1 0
c p weight -39 1 0
c p weight 47 0 0
c p weight -47 1 0
c p weight 48 1 0
c p weight -48 1 0
c p weight 56 0 0
c p weight -56 1 0
c p weight 57 1 0
c p weight -57 1 0
c p weight 64 0 0
c p weight -64 1 0
c p weight 65 1 0
c p weight -65 1 0
c p weight 73 0 0
c p weight -73 1 0
c p weight 74 1 0
c p weight -74 1 0
c p weight 81 0 0
c p weight -81 1 0
c p weight 82 1 0
c p weight -82 1 0
c p weight 90 0 0
c p weight -90 1 0
c p weight 91 1 0
c p weight -91 1 0
c p weight 99 0 0
c p weight -99 1 0
c p weight 100 1 0
c p weight -100 1 0
c p weight 107 0 0
c p weight -107 1 0
c p weight 108 1 0
c p weight -108 1 0
c p weight 116 0 0
c p weight -116 1 0
c p weight 117 1 0
c p weight -117 1 0
c p weight 125 0 0
c p weight -125 1 0
c p weight 126 1 0
c p weight -126 1 0
c p weight 133 0 0
c p weight -133 1 0
c p weight 134 1 0
c p weight -134 1 0
c p weight 142 0 0
c p weight -142 1 0
c p weight 143 1 0
c p weight -143 1 0
c p weight 151 0 0
c p weight -151 1 0
c p weight 152 1 0
c p weight -152 1 0
c p weight 159 0 0
c p weight -159 1 0
c p weight 160 1 0
c p weight -160 1 0
c p weight 168 0 0
c p weight -168 1 0
c p weight 169 1 0
c p weight -169 1 0
c p weight 180 0 0
c p weight -180 1 0
c p weight 181 1 0
c p weight -181 1 0
c p weight 192 0 0
c p weight -192 1 0
c p weight 193 1 0
c p weight -193 1 0
c p weight 203 0 0
c p weight -203 1 0
c p weight 204 1 0
c p weight -204 1 0
c p weight 215 0 0
c p weight -215 1 0
c p weight 216 1 0
c p weight -216 1 0
c p weight 226 0 0
c p weight -226 1 0
c p weight 227 1 0
c p weight -227 1 0
c p weight 238 0 0
c p weight -238 1 0
c p weight 239 1 0
c p weight -239 1 0
c p weight 250 0 0
c p weight -250 1 0
c p weight 251 1 0
c p weight -251 1 0
c p weight 261 0 0
c p weight -261 1 0
c p weight 262 1 0
c p weight -262 1 0
c p weight 273 0 0
c p weight -273 1 0
c p weight 274 1 0
c p weight -274 1 0
c p weight 285 0 0
c p weight -285 1 0
c p weight 286 1 0
c p weight -286 1 0
c p weight 296 0 0
c p weight -296 1 0
c p weight 297 1 0
c p weight -297 1 0
c p weight 308 0 0
c p weight -308 1 0
c p weight 309 1 0
c p weight -309 1 0
c p weight 320 0 0
c p weight -320 1 0
c p weight 321 1 0
c p weight -321 1 0
c p weight 331 0 0
c p weight -331 1 0
c p weight 332 1 0
c p weight -332 1 0
c p weight 342 0 0
c p weight -342 1 0
c p weight 343 1 0
c p weight -343 1 0
c p weight 344 -1 0
c p weight -344 1 0
c p weight 346 0.5 0
346 0
-33 0
-31 0
-29 0
-27 0
-25 0
-23 0
-21 0
-19 0
-17 0
-15 0
-13 0
-11 0
-9 0
-7 0
-5 0
-3 0
-1 0
34 -33 1 0
34 -33 2 0
-34 33 1 0
-34 33 2 0
34 33 -1 -2 0
-34 -33 -1 -2 0
35 1 -2 0
35 -1 2 0
-35 1 2 0
-35 -1 -2 0
36 37 -34 0
36 -34 35 0
-36 37 34 0
-36 34 35 0
36 -34 -1 0
-36 34 -1 0
36 -37 34 1 -35 0
-36 -37 -34 1 -35 0
37 -1 35 0
-37 1 35 0
-38 35 0
37 -38 -1 0
-37 -38 1 0
37 38 1 -35 0
-37 38 -1 -35 0
-39 35 0
37 -39 1 0
-37 -39 -1 0
37 39 -1 -35 0
-37 39 1 -35 0
40 -36 37 0
40 -36 35 0
-40 36 37 0
-40 36 35 0
40 36 -37 -35 0
-40 -36 -37 -35 0
41 37 -35 0
41 -37 35 0
-41 37 35 0
-41 -37 -35 0
42 40 -41 0
42 -40 41 0
-42 40 41 0
-42 -40 -41 0
43 -42 3 0
43 -42 4 0
-43 42 3 0
-43 42 4 0
43 42 -3 -4 0
-43 -42 -3 -4 0
44 3 -4 0
44 -3 4 0
-44 3 4 0
-44 -3 -4 0
45 46 -43 0
45 -43 44 0
-45 46 43 0
-45 43 44 0
45 -43 -3 0
-45 43 -3 0
45 -46 43 3 -44 0
-45 -46 -43 3 -44 0
46 -3 44 0
-46 3 44 0
-47 44 0
46 -47 -3 0
-46 -47 3 0
46 47 3 -44 0
-46 47 -3 -44 0
-48 44 0
46 -48 3 0
-46 -48 -3 0
46 48 -3 -44 0
-46 48 3 -44 0
49 -45 46 0
49 -45 44 0
-49 45 46 0
-49 45 44 0
49 45 -46 -44 0
-49 -45 -46 -44 0
50 46 -44 0
50 -46 44 0
-50 46 44 0
-50 -46 -44 0
51 49 -50 0
51 -49 50 0
-51 49 50 0
-51 -49 -50 0
52 -51 5 0
52 -51 6 0
-52 51 5 0
-52 51 6 0
52 51 -5 -6 0
-52 -51 -5 -6 0
53 5 -6 0
53 -5 6 0
-53 5 6 0
-53 -5 -6 0
54 55 -52 0
54 -52 53 0
-54 55 52 0
-54 52 53 0
54 -52 -5 0
-54 52 -5 0
54 -55 52 5 -53 0
-54 -55 -52 5 -53 0
55 -5 53 0
-55 5 53 0
-56 53 0
55 -56 -5 0
-55 -56 5 0
55 56 5 -53 0
-55 56 -5 -53 0
-57 53 0
55 -57 5 0
-55 -57 -5 0
55 57 -5 -53 0
-55 57 5 -53 0
58 -54 55 0
58 -54 53 0
-58 54 55 0
-58 54 53 0
58 54 -55 -53 0
-58 -54 -55 -53 0
59 55 -53 0
59 -55 53 0
-59 55 53 0
-59 -55 -53 0
60 -58 7 0
60 -58 8 0
-60 58 7 0
-60 58 8 0
60 58 -7 -8 0
-60 -58 -7 -8 0
61 7 -8 0
61 -7 8 0
-61 7 8 0
-61 -7 -8 0
62 63 -60 0
62 -60 61 0
-62 63 60 0
-62 60 61 0
62 -60 -7 0
-62 60 -7 0
62 -63 60 7 -61 0
-62 -63 -60 7 -61 0
63 -7 61 0
-63 7 61 0
-64 61 0
63 -64 -7 0
-63 -64 7 0
63 64 7 -61 0
-63 64 -7 -61 0
-65 61 0
63 -65 7 0
-63 -65 -7 0
63 65 -7 -61 0
-63 65 7 -61 0
66 -62 63 0
66 -62 61 0
-66 62 63 0
-66 62 61 0
66 62 -63 -61 0
-66 -62 -63 -61 0
67 63 -61 0
67 -63 61 0
-67 63 61 0
-67 -63 -61 0
68 66 -67 0
68 -66 67 0
-68 66 67 0
-68 -66 -67 0
69 -68 9 0
69 -68 10 0
-69 68 9 0
-69 68 10 0
69 68 -9 -10 0
-69 -68 -9 -10 0
70 9 -10 0
70 -9 10 0
-70 9 10 0
-70 -9 -10 0
71 72 -69 0
71 -69 70 0
-71 72 69 0
-71 69 70 0
71 -69 -9 0
-71 69 -9 0
71 -72 69 9 -70 0
-71 -72 -69 9 -70 0
72 -9 70 0
-72 9 70 0
-73 70 0
72 -73 -9 0
-72 -73 9 0
72 73 9 -70 0
-72 73 -9 -70 0
-74 70 0
72 -74 9 0
-72 -74 -9 0
72 74 -9 -70 0
-72 74 9 -70 0
75 -71 72 0
75 -71 70 0
-75 71 72 0
-75 71 70 0
75 71 -72 -70 0
-75 -71 -72 -70 0
76 72 -70 0
76 -72 70 0
-76 72 70 0
-76 -72 -70 0
77 -75 11 0
77 -75 12 0
-77 75 11 0
-77 75 12 0
77 75 -11 -12 0
-77 -75 -11 -12 0
78 11 -12 0
78 -11 12 0
-78 11 12 0
-78 -11 -12 0
79 80 -77 0
79 -77 78 0
-79 80 77 0
-79 77 78 0
79 -77 -11 0
-79 77 -11 0
79 -80 77 11 -78 0
-79 -80 -77 11 -78 0
80 -11 78 0
-80 11 78 0
-81 78 0
80 -81 -11 0
-80 -81 11 0
80 81 11 -78 0
-80 81 -11 -78 0
-82 78 0
80 -82 11 0
-80 -82 -11 0
80 82 -11 -78 0
-80 82 11 -78 0
83 -79 80 0
83 -79 78 0
-83 79 80 0
-83 79 78 0
83 79 -80 -78 0
-83 -79 -80 -78 0
84 80 -78 0
84 -80 78 0
-84 80 78 0
-84 -80 -78 0
85 83 -84 0
85 -83 84 0
-85 83 84 0
-85 -83 -84 0
86 -85 13 0
86 -85 14 0
-86 85 13 0
-86 85 14 0
86 85 -13 -14 0
-86 -85 -13 -14 0
87 13 -14 0
87 -13 14 0
-87 13 14 0
-87 -13 -14 0
88 89 -86 0
88 -86 87 0
-88 89 86 0
-88 86 87 0
88 -86 -13 0
-88 86 -13 0
88 -89 86 13 -87 0
-88 -89 -86 13 -87 0
89 -13 87 0
-89 13 87 0
-90 87 0
89 -90 -13 0
-89 -90 13 0
89 90 13 -87 0
-89 90 -13 -87 0
-91 87 0
89 -91 13 0
-89 -91 -13 0
89 91 -13 -87 0
-89 91 13 -87 0
92 -88 89 0
92 -88 87 0
-92 88 89 0
-92 88 87 0
92 88 -89 -87 0
-92 -88 -89 -87 0
93 89 -87 0
93 -89 87 0
-93 89 87 0
-93 -89 -87 0
94 92 -93 0
94 -92 93 0
-94 92 93 0
-94 -92 -93 0
95 -94 15 0
95 -94 16 0
-95 94 15 0
-95 94 16 0
95 94 -15 -16 0
-95 -94 -15 -16 0
96 15 -16 0
96 -15 16 0
-96 15 16 0
-96 -15 -16 0
97 98 -95 0
97 -95 96 0
-97 98 95 0
-97 95 96 0
97 -95 -15 0
-97 95 -15 0
97 -98 95 15 -96 0
-97 -98 -95 15 -96 0
98 -15 96 0
-98 15 96 0
-99 96 0
98 -99 -15 0
-98 -99 15 0
98 99 15 -96 0
-98 99 -15 -96 0
-100 96 0
98 -100 15 0
-98 -100 -15 0
98 100 -15 -96 0
-98 100 15 -96 0
101 -97 98 0
101 -97 96 0
-101 97 98 0
-101 97 96 0
101 97 -98 -96 0
-101 -97 -98 -96 0
102 98 -96 0
102 -98 96 0
-102 98 96 0
-102 -98 -96 0
103 -101 17 0
103 -101 18 0
-103 101 17 0
-103 101 18 0
103 101 -17 -18 0
-103 -101 -17 -18 0
104 17 -18 0
104 -17 18 0
-104 17 18 0
-104 -17 -18 0
105 106 -103 0
105 -103 104 0
-105 106 103 0
-105 103 104 0
105 -103 -17 0
-105 103 -17 0
105 -106 103 17 -104 0
-105 -106 -103 17 -104 0
106 -17 104 0
-106 17 104 0
-107 104 0
106 -107 -17 0
-106 -107 17 0
106 107 17 -104 0
-106 107 -17 -104 0
-108 104 0
106 -108 17 0
-106 -108 -17 0
106 108 -17 -104 0
-106 108 17 -104 0
109 -105 106 0
109 -105 104 0
-109 105 106 0
-109 105 104 0
109 105 -106 -104 0
-109 -105 -106 -104 0
110 106 -104 0
110 -106 104 0
-110 106 104 0
-110 -106 -104 0
111 109 -110 0
111 -109 110 0
-111 109 110 0
-111 -109 -110 0
112 -111 19 0
112 -111 20 0
-112 111 19 0
-112 111 20 0
112 111 -19 -20 0
-112 -111 -19 -20 0
113 19 -20 0
113 -19 20 0
-113 19 20 0
-113 -19 -20 0
114 115 -112 0
114 -112 113 0
-114 115 112 0
-114 112 113 0
114 -112 -19 0
-114 112 -19 0
114 -115 112 19 -113 0
-114 -115 -112 19 -113 0
115 -19 113 0
-115 19 113 0
-116 113 0
115 -116 -19 0
-115 -116 19 0
115 116 19 -113 0
-115 116 -19 -113 0
-117 113 0
115 -117 19 0
-115 -117 -19 0
115 117 -19 -113 0
-115 117 19 -113 0
118 -114 115 0
118 -114 113 0
-118 114 115 0
-118 114 113 0
118 114 -115 -113 0
-118 -114 -115 -113 0
119 115 -113 0
119 -115 113 0
-119 115 113 0
-119 -115 -113 0
120 118 -119 0
120 -118 119 0
-120 118 119 0
-120 -118 -119 0
121 -120 21 0
121 -120 22 0
-121 120 21 0
-121 120 22 0
121 120 -21 -22 0
-121 -120 -21 -22 0
122 21 -22 0
122 -21 22 0
-122 21 22 0
-122 -21 -22 0
123 124 -121 0
123 -121 122 0
-123 124 121 0
-123 121 122 0
123 -121 -21 0
-123 121 -21 0
123 -124 121 21 -122 0
-123 -124 -121 21 -122 0
124 -21 122 0
-124 21 122 0
-125 122 0
124 -125 -21 0
-124 -125 21 0
124 125 21 -122 0
-124 125 -21 -122 0
-126 122 0
124 -126 21 0
-124 -126 -21 0
124 126 -21 -122 0
-124 126 21 -122 0
127 -123 124 0
127 -123 122 0
-127 123 124 0
-127 123 122 0
127 123 -124 -122 0
-127 -123 -124 -122 0
128 124 -122 0
128 -124 122 0
-128 124 122 0
-128 -124 -122 0
129 -127 23 0
129 -127 24 0
-129 127 23 0
-129 127 24 0
129 127 -23 -24 0
-129 -127 -23 -24 0
130 23 -24 0
130 -23 24 0
-130 23 24 0
-130 -23 -24 0
131 132 -129 0
131 -129 130 0
-131 132 129 0
-131 129 130 0
131 -129 -23 0
-131 129 -23 0
131 -132 129 23 -130 0
-131 -132 -129 23 -130 0
132 -23 130 0
-132 23 130 0
-133 130 0
132 -133 -23 0
-132 -133 23 0
132 133 23 -130 0
-132 133 -23 -130 0
-134 130 0
132 -134 23 0
-132 -134 -23 0
132 134 -23 -130 0
-132 134 23 -130 0
135 -131 132 0
135 -131 130 0
-135 131 132 0
-135 131 130 0
135 131 -132 -130 0
-135 -131 -132 -130 0
136 132 -130 0
136 -132 130 0
-136 132 130 0
-136 -132 -130 0
137 135 -136 0
137 -135 136 0
-137 135 136 0
-137 -135 -136 0
138 -137 25 0
138 -137 26 0
-138 137 25 0
-138 137 26 0
138 137 -25 -26 0
-138 -137 -25 -26 0
139 25 -26 0
139 -25 26 0
-139 25 26 0
-139 -25 -26 0
140 141 -138 0
140 -138 139 0
-140 141 138 0
-140 138 139 0
140 -138 -25 0
-140 138 -25 0
140 -141 138 25 -139 0
-140 -141 -138 25 -139 0
141 -25 139 0
-141 25 139 0
-142 139 0
141 -142 -25 0
-141 -142 25 0
141 142 25 -139 0
-141 142 -25 -139 0
-143 139 0
141 -143 25 0
-141 -143 -25 0
141 143 -25 -139 0
-141 143 25 -139 0
144 -140 141 0
144 -140 139 0
-144 140 141 0
-144 140 139 0
144 140 -141 -139 0
-144 -140 -141 -139 0
145 141 -139 0
145 -141 139 0
-145 141 139 0
-145 -141 -139 0
146 144 -145 0
146 -144 145 0
-146 144 145 0
-146 -144 -145 0
147 -146 27 0
147 -146 28 0
-147 146 27 0
-147 146 28 0
147 146 -27 -28 0
-147 -146 -27 -28 0
148 27 -28 0
148 -27 28 0
-148 27 28 0
-148 -27 -28 0
149 150 -147 0
149 -147 148 0
-149 150 147 0
-149 147 148 0
149 -147 -27 0
-149 147 -27 0
149 -150 147 27 -148 0
-149 -150 -147 27 -148 0
150 -27 148 0
-150 27 148 0
-151 148 0
150 -151 -27 0
-150 -151 27 0
150 151 27 -148 0
-150 151 -27 -148 0
-152 148 0
150 -152 27 0
-150 -152 -27 0
150 152 -27 -148 0
-150 152 27 -148 0
153 -149 150 0
153 -149 148 0
-153 149 150 0
-153 149 148 0
153 149 -150 -148 0
-153 -149 -150 -148 0
154 150 -148 0
154 -150 148 0
-154 150 148 0
-154 -150 -148 0
155 -153 29 0
155 -153 30 0
-155 153 29 0
-155 153 30 0
155 153 -29 -30 0
-155 -153 -29 -30 0
156 29 -30 0
156 -29 30 0
-156 29 30 0
-156 -29 -30 0
157 158 -155 0
157 -155 156 0
-157 158 155 0
-157 155 156 0
157 -155 -29 0
-157 155 -29 0
157 -158 155 29 -156 0
-157 -158 -155 29 -156 0
158 -29 156 0
-158 29 156 0
-159 156 0
158 -159 -29 0
-158 -159 29 0
158 159 29 -156 0
-158 159 -29 -156 0
-160 156 0
158 -160 29 0
-158 -160 -29 0
158 160 -29 -156 0
-158 160 29 -156 0
161 -157 158 0
161 -157 156 0
-161 157 158 0
-161 157 156 0
161 157 -158 -156 0
-161 -157 -158 -156 0
162 158 -156 0
162 -158 156 0
-162 158 156 0
-162 -158 -156 0
163 161 -32 0
163 -161 32 0
-163 161 32 0
-163 -161 -32 0
164 -163 31 0
164 -163 32 0
-164 163 31 0
-164 163 32 0
164 163 -31 -32 0
-164 -163 -31 -32 0
165 31 -32 0
165 -31 32 0
-165 31 32 0
-165 -31 -32 0
166 167 -164 0
166 -164 165 0
-166 167 164 0
-166 164 165 0
166 -164 -31 0
-166 164 -31 0
166 -167 164 31 -165 0
-166 -167 -164 31 -165 0
167 -31 165 0
-167 31 165 0
-168 165 0
167 -168 -31 0
-167 -168 31 0
167 168 31 -165 0
-167 168 -31 -165 0
-169 165 0
167 -169 31 0
-167 -169 -31 0
167 169 -31 -165 0
-167 169 31 -165 0
170 -166 167 0
170 -166 165 0
-170 166 167 0
-170 166 165 0
170 166 -167 -165 0
-170 -166 -167 -165 0
171 167 -165 0
171 -167 165 0
-171 167 165 0
-171 -167 -165 0
172 -170 37 0
172 -170 171 0
-172 170 37 0
-172 170 171 0
172 -170 167 -41 0
172 -170 -167 41 0
-172 170 167 -41 0
-172 170 -167 41 0
172 170 -37 167 41 -171 0
172 170 -37 -167 -41 -171 0
-172 -170 -37 167 41 -171 0
-172 -170 -37 -167 -41 -171 0
174 37 -167 0
174 -37 167 0
-174 37 167 0
-174 -37 -167 0
173 41 -171 0
173 -41 171 0
-173 41 171 0
-173 -41 -171 0
175 172 -173 0
175 -172 173 0
-175 172 173 0
-175 -172 -173 0
176 -175 37 0
176 -175 173 0
-176 175 37 0
-176 175 173 0
176 175 -37 -173 0
-176 -175 -37 -173 0
177 37 -173 0
177 -37 173 0
-177 37 173 0
-177 -37 -173 0
178 179 -176 0
178 -176 177 0
-178 179 176 0
-178 176 177 0
178 -176 -37 0
-178 176 -37 0
178 -179 176 37 -177 0
-178 -179 -176 37 -177 0
179 -37 177 0
-179 37 177 0
-180 177 0
179 -180 -37 0
-179 -180 37 0
179 180 37 -177 0
-179 180 -37 -177 0
-181 177 0
179 -181 37 0
-179 -181 -37 0
179 181 -37 -177 0
-179 181 37 -177 0
182 -178 179 0
182 -178 177 0
-182 178 179 0
-182 178 177 0
182 178 -179 -177 0
-182 -178 -179 -177 0
183 179 -177 0
183 -179 177 0
-183 179 177 0
-183 -179 -177 0
184 -182 46 0
184 -182 171 0
-184 182 46 0
-184 182 171 0
184 -182 174 -50 0
184 -182 -174 50 0
-184 182 174 -50 0
-184 182 -174 50 0
184 182 -46 174 50 -171 0
184 182 -46 -174 -50 -171 0
-184 -182 -46 174 50 -171 0
-184 -182 -46 -174 -50 -171 0
186 46 -174 0
186 -46 174 0
-186 46 174 0
-186 -46 -174 0
185 50 -171 0
185 -50 171 0
-185 50 171 0
-185 -50 -171 0
187 184 -185 0
187 -184 185 0
-187 184 185 0
-187 -184 -185 0
188 -187 46 0
188 -187 185 0
-188 187 46 0
-188 187 185 0
188 187 -46 -185 0
-188 -187 -46 -185 0
189 46 -185 0
189 -46 185 0
-189 46 185 0
-189 -46 -185 0
190 191 -188 0
190 -188 189 0
-190 191 188 0
-190 188 189 0
190 -188 -46 0
-190 188 -46 0
190 -191 188 46 -189 0
-190 -191 -188 46 -189 0
191 -46 189 0
-191 46 189 0
-192 189 0
191 -192 -46 0
-191 -192 46 0
191 192 46 -189 0
-191 192 -46 -189 0
-193 189 0
191 -193 46 0
-191 -193 -46 0
191 193 -46 -189 0
-191 193 46 -189 0
194 -190 191 0
194 -190 189 0
-194 190 191 0
-194 190 189 0
194 190 -191 -189 0
-194 -190 -191 -189 0
195 191 -189 0
195 -191 189 0
-195 191 189 0
-195 -191 -189 0
196 -194 55 0
196 -194 171 0
-196 194 55 0
-196 194 171 0
196 -194 186 -59 0
196 -194 -186 59 0
-196 194 186 -59 0
-196 194 -186 59 0
196 194 -55 186 59 -171 0
196 194 -55 -186 -59 -171 0
-196 -194 -55 186 59 -171 0
-196 -194 -55 -186 -59 -171 0
198 55 -186 0
198 -55 186 0
-198 55 186 0
-198 -55 -186 0
197 59 -171 0
197 -59 171 0
-197 59 171 0
-197 -59 -171 0
199 -196 55 0
199 -196 197 0
-199 196 55 0
-199 196 197 0
199 196 -55 -197 0
-199 -196 -55 -197 0
200 55 -197 0
200 -55 197 0
-200 55 197 0
-200 -55 -197 0
201 202 -199 0
201 -199 200 0
-201 202 199 0
-201 199 200 0
201 -199 -55 0
-201 199 -55 0
201 -202 199 55 -200 0
-201 -202 -199 55 -200 0
202 -55 200 0
-202 55 200 0
-203 200 0
202 -203 -55 0
-202 -203 55 0
202 203 55 -200 0
-202 203 -55 -200 0
-204 200 0
202 -204 55 0
-202 -204 -55 0
202 204 -55 -200 0
-202 204 55 -200 0
205 -201 202 0
205 -201 200 0
-205 201 202 0
-205 201 200 0
205 201 -202 -200 0
-205 -201 -202 -200 0
206 202 -200 0
206 -202 200 0
-206 202 200 0
-206 -202 -200 0
207 -205 63 0
207 -205 171 0
-207 205 63 0
-207 205 171 0
207 -205 198 -67 0
207 -205 -198 67 0
-207 205 198 -67 0
-207 205 -198 67 0
207 205 -63 198 67 -171 0
207 205 -63 -198 -67 -171 0
-207 -205 -63 198 67 -171 0
-207 -205 -63 -198 -67 -171 0
209 63 -198 0
209 -63 198 0
-209 63 198 0
-209 -63 -198 0
208 67 -171 0
208 -67 171 0
-208 67 171 0
-208 -67 -171 0
210 207 -208 0
210 -207 208 0
-210 207 208 0
-210 -207 -208 0
211 -210 63 0
211 -210 208 0
-211 210 63 0
-211 210 208 0
211 210 -63 -208 0
-211 -210 -63 -208 0
212 63 -208 0
212 -63 208 0
-212 63 208 0
-212 -63 -208 0
213 214 -211 0
213 -211 212 0
-213 214 211 0
-213 211 212 0
213 -211 -63 0
-213 211 -63 0
213 -214 211 63 -212 0
-213 -214 -211 63 -212 0
214 -63 212 0
-214 63 212 0
-215 212 0
214 -215 -63 0
-214 -215 63 0
214 215 63 -212 0
-214 215 -63 -212 0
-216 212 0
214 -216 63 0
-214 -216 -63 0
214 216 -63 -212 0
-214 216 63 -212 0
217 -213 214 0
217 -213 212 0
-217 213 214 0
-217 213 212 0
217 213 -214 -212 0
-217 -213 -214 -212 0
218 214 -212 0
218 -214 212 0
-218 214 212 0
-218 -214 -212 0
219 -217 72 0
219 -217 171 0
-219 217 72 0
-219 217 171 0
219 -217 209 -76 0
219 -217 -209 76 0
-219 217 209 -76 0
-219 217 -209 76 0
219 217 -72 209 76 -171 0
219 217 -72 -209 -76 -171 0
-219 -217 -72 209 76 -171 0
-219 -217 -72 -209 -76 -171 0
221 72 -209 0
221 -72 209 0
-221 72 209 0
-221 -72 -209 0
220 76 -171 0
220 -76 171 0
-220 76 171 0
-220 -76 -171 0
222 -219 72 0
222 -219 220 0
-222 219 72 0
-222 219 220 0
222 219 -72 -220 0
-222 -219 -72 -220 0
223 72 -220 0
223 -72 220 0
-223 72 220 0
-223 -72 -220 0
224 225 -222 0
224 -222 223 0
-224 225 222 0
-224 222 223 0
224 -222 -72 0
-224 222 -72 0
224 -225 222 72 -223 0
-224 -225 -222 72 -223 0
225 -72 223 0
-225 72 223 0
-226 223 0
225 -226 -72 0
-225 -226 72 0
225 226 72 -223 0
-225 226 -72 -223 0
-227 223 0
225 -227 72 0
-225 -227 -72 0
225 227 -72 -223 0
-225 227 72 -223 0
228 -224 225 0
228 -224 223 0
-228 224 225 0
-228 224 223 0
228 224 -225 -223 0
-228 -224 -225 -223 0
229 225 -223 0
229 -225 223 0
-229 225 223 0
-229 -225 -223 0
230 -228 80 0
230 -228 171 0
-230 228 80 0
-230 228 171 0
230 -228 221 -84 0
230 -228 -221 84 0
-230 228 221 -84 0
-230 228 -221 84 0
230 228 -80 221 84 -171 0
230 228 -80 -221 -84 -171 0
-230 -228 -80 221 84 -171 0
-230 -228 -80 -221 -84 -171 0
232 80 -221 0
232 -80 221 0
-232 80 221 0
-232 -80 -221 0
231 84 -171 0
231 -84 171 0
-231 84 171 0
-231 -84 -171 0
233 230 -231 0
233 -230 231 0
-233 230 231 0
-233 -230 -231 0
234 -233 80 0
234 -233 231 0
-234 233 80 0
-234 233 231 0
234 233 -80 -231 0
-234 -233 -80 -231 0
235 80 -231 0
235 -80 231 0
-235 80 231 0
-235 -80 -231 0
236 237 -234 0
236 -234 235 0
-236 237 234 0
-236 234 235 0
236 -234 -80 0
-236 234 -80 0
236 -237 234 80 -235 0
-236 -237 -234 80 -235 0
237 -80 235 0
-237 80 235 0
-238 235 0
237 -238 -80 0
-237 -238 80 0
237 238 80 -235 0
-237 238 -80 -235 0
-239 235 0
237 -239 80 0
-237 -239 -80 0
237 239 -80 -235 0
-237 239 80 -235 0
240 -236 237 0
240 -236 235 0
-240 236 237 0
-240 236 235 0
240 236 -237 -235 0
-240 -236 -237 -235 0
241 237 -235 0
241 -237 235 0
-241 237 235 0
-241 -237 -235 0
242 -240 89 0
242 -240 171 0
-242 240 89 0
-242 240 171 0
242 -240 232 -93 0
242 -240 -232 93 0
-242 240 232 -93 0
-242 240 -232 93 0
242 240 -89 232 93 -171 0
242 240 -89 -232 -93 -171 0
-242 -240 -89 232 93 -171 0
-242 -240 -89 -232 -93 -171 0
244 89 -232 0
244 -89 232 0
-244 89 232 0
-244 -89 -232 0
243 93 -171 0
243 -93 171 0
-243 93 171 0
-243 -93 -171 0
245 242 -243 0
245 -242 243 0
-245 242 243 0
-245 -242 -243 0
246 -245 89 0
246 -245 243 0
-246 245 89 0
-246 245 243 0
246 245 -89 -243 0
-246 -245 -89 -243 0
247 89 -243 0
247 -89 243 0
-247 89 243 0
-247 -89 -243 0
248 249 -246 0
248 -246 247 0
-248 249 246 0
-248 246 247 0
248 -246 -89 0
-248 246 -89 0
248 -249 246 89 -247 0
-248 -249 -246 89 -247 0
249 -89 247 0
-249 89 247 0
-250 247 0
249 -250 -89 0
-249 -250 89 0
249 250 89 -247 0
-249 250 -89 -247 0
-251 247 0
249 -251 89 0
-249 -251 -89 0
249 251 -89 -247 0
-249 251 89 -247 0
252 -248 249 0
252 -248 247 0
-252 248 249 0
-252 248 247 0
252 248 -249 -247 0
-252 -248 -249 -247 0
253 249 -247 0
253 -249 247 0
-253 249 247 0
-253 -249 -247 0
254 -252 98 0
254 -252 171 0
-254 252 98 0
-254 252 171 0
254 -252 244 -102 0
254 -252 -244 102 0
-254 252 244 -102 0
-254 252 -244 102 0
254 252 -98 244 102 -171 0
254 252 -98 -244 -102 -171 0
-254 -252 -98 244 102 -171 0
-254 -252 -98 -244 -102 -171 0
256 98 -244 0
256 -98 244 0
-256 98 244 0
-256 -98 -244 0
255 102 -171 0
255 -102 171 0
-255 102 171 0
-255 -102 -171 0
257 -254 98 0
257 -254 255 0
-257 254 98 0
-257 254 255 0
257 254 -98 -255 0
-257 -254 -98 -255 0
258 98 -255 0
258 -98 255 0
-258 98 255 0
-258 -98 -255 0
259 260 -257 0
259 -257 258 0
-259 260 257 0
-259 257 258 0
259 -257 -98 0
-259 257 -98 0
259 -260 257 98 -258 0
-259 -260 -257 98 -258 0
260 -98 258 0
-260 98 258 0
-261 258 0
260 -261 -98 0
-260 -261 98 0
260 261 98 -258 0
-260 261 -98 -258 0
-262 258 0
260 -262 98 0
-260 -262 -98 0
260 262 -98 -258 0
-260 262 98 -258 0
263 -259 260 0
263 -259 258 0
-263 259 260 0
-263 259 258 0
263 259 -260 -258 0
-263 -259 -260 -258 0
264 260 -258 0
264 -260 258 0
-264 260 258 0
-264 -260 -258 0
265 -263 106 0
265 -263 171 0
-265 263 106 0
-265 263 171 0
265 -263 256 -110 0
265 -263 -256 110 0
-265 263 256 -110 0
-265 263 -256 110 0
265 263 -106 256 110 -171 0
265 263 -106 -256 -110 -171 0
-265 -263 -106 256 110 -171 0
-265 -263 -106 -256 -110 -171 0
267 106 -256 0
267 -106 256 0
-267 106 256 0
-267 -106 -256 0
266 110 -171 0
266 -110 171 0
-266 110 171 0
-266 -110 -171 0
268 265 -266 0
268 -265 266 0
-268 265 266 0
-268 -265 -266 0
269 -268 106 0
269 -268 266 0
-269 268 106 0
-269 268 266 0
269 268 -106 -266 0
-269 -268 -106 -266 0
270 106 -266 0
270 -106 266 0
-270 106 266 0
-270 -106 -266 0
271 272 -269 0
271 -269 270 0
-271 272 269 0
-271 269 270 0
271 -269 -106 0
-271 269 -106 0
271 -272 269 106 -270 0
-271 -272 -269 106 -270 0
272 -106 270 0
-272 106 270 0
-273 270 0
272 -273 -106 0
-272 -273 106 0
272 273 106 -270 0
-272 273 -106 -270 0
-274 270 0
272 -274 106 0
-272 -274 -106 0
272 274 -106 -270 0
-272 274 106 -270 0
275 -271 272 0
275 -271 270 0
-275 271 272 0
-275 271 270 0
275 271 -272 -270 0
-275 -271 -272 -270 0
276 272 -270 0
276 -272 270 0
-276 272 270 0
-276 -272 -270 0
277 -275 115 0
277 -275 171 0
-277 275 115 0
-277 275 171 0
277 -275 267 -119 0
277 -275 -267 119 0
-277 275 267 -119 0
-277 275 -267 119 0
277 275 -115 267 119 -171 0
277 275 -115 -267 -119 -171 0
-277 -275 -115 267 119 -171 0
-277 -275 -115 -267 -119 -171 0
279 115 -267 0
279 -115 267 0
-279 115 267 0
-279 -115 -267 0
278 119 -171 0
278 -119 171 0
-278 119 171 0
-278 -119 -171 0
280 277 -278 0
280 -277 278 0
-280 277 278 0
-280 -277 -278 0
281 -280 115 0
281 -280 278 0
-281 280 115 0
-281 280 278 0
281 280 -115 -278 0
-281 -280 -115 -278 0
282 115 -278 0
282 -115 278 0
-282 115 278 0
-282 -115 -278 0
283 284 -281 0
283 -281 282 0
-283 284 281 0
-283 281 282 0
283 -281 -115 0
-283 281 -115 0
283 -284 281 115 -282 0
-283 -284 -281 115 -282 0
284 -115 282 0
-284 115 282 0
-285 282 0
284 -285 -115 0
-284 -285 115 0
284 285 115 -282 0
-284 285 -115 -282 0
-286 282 0
284 -286 115 0
-284 -286 -115 0
284 286 -115 -282 0
-284 286 115 -282 0
287 -283 284 0
287 -283 282 0
-287 283 284 0
-287 283 282 0
287 283 -284 -282 0
-287 -283 -284 -282 0
288 284 -282 0
288 -284 282 0
-288 284 282 0
-288 -284 -282 0
289 -287 124 0
289 -287 171 0
-289 287 124 0
-289 287 171 0
289 -287 279 -128 0
289 -287 -279 128 0
-289 287 279 -128 0
-289 287 -279 128 0
289 287 -124 279 128 -171 0
289 287 -124 -279 -128 -171 0
-289 -287 -124 279 128 -171 0
-289 -287 -124 -279 -128 -171 0
291 124 -279 0
291 -124 279 0
-291 124 279 0
-291 -124 -279 0
290 128 -171 0
290 -128 171 0
-290 128 171 0
-290 -128 -171 0
292 -289 124 0
292 -289 290 0
-292 289 124 0
-292 289 290 0
292 289 -124 -290 0
-292 -289 -124 -290 0
293 124 -290 0
293 -124 290 0
-293 124 290 0
-293 -124 -290 0
294 295 -292 0
294 -292 293 0
-294 295 292 0
-294 292 293 0
294 -292 -124 0
-294 292 -124 0
294 -295 292 124 -293 0
-294 -295 -292 124 -293 0
295 -124 293 0
-295 124 293 0
-296 293 0
295 -296 -124 0
-295 -296 124 0
295 296 124 -293 0
-295 296 -124 -293 0
-297 293 0
295 -297 124 0
-295 -297 -124 0
295 297 -124 -293 0
-295 297 124 -293 0
298 -294 295 0
298 -294 293 0
-298 294 295 0
-298 294 293 0
298 294 -295 -293 0
-298 -294 -295 -293 0
299 295 -293 0
299 -295 293 0
-299 295 293 0
-299 -295 -293 0
300 -298 132 0
300 -298 171 0
-300 298 132 0
-300 298 171 0
300 -298 291 -136 0
300 -298 -291 136 0
-300 298 291 -136 0
-300 298 -291 136 0
300 298 -132 291 136 -171 0
300 298 -132 -291 -136 -171 0
-300 -298 -132 291 136 -171 0
-300 -298 -132 -291 -136 -171 0
302 132 -291 0
302 -132 291 0
-302 132 291 0
-302 -132 -291 0
301 136 -171 0
301 -136 171 0
-301 136 171 0
-301 -136 -171 0
303 300 -301 0
303 -300 301 0
-303 300 301 0
-303 -300 -301 0
304 -303 132 0
304 -303 301 0
-304 303 132 0
-304 303 301 0
304 303 -132 -301 0
-304 -303 -132 -301 0
305 132 -301 0
305 -132 301 0
-305 132 301 0
-305 -132 -301 0
306 307 -304 0
306 -304 305 0
-306 307 304 0
-306 304 305 0
306 -304 -132 0
-306 304 -132 0
306 -307 304 132 -305 0
-306 -307 -304 132 -305 0
307 -132 305 0
-307 132 305 0
-308 305 0
307 -308 -132 0
-307 -308 132 0
307 308 132 -305 0
-307 308 -132 -305 0
-309 305 0
307 -309 132 0
-307 -309 -132 0
307 309 -132 -305 0
-307 309 132 -305 0
310 -306 307 0
310 -306 305 0
-310 306 307 0
-310 306 305 0
310 306 -307 -305 0
-310 -306 -307 -305 0
311 307 -305 0
311 -307 305 0
-311 307 305 0
-311 -307 -305 0
312 -310 141 0
312 -310 171 0
-312 310 141 0
-312 310 171 0
312 -310 302 -145 0
312 -310 -302 145 0
-312 310 302 -145 0
-312 310 -302 145 0
312 310 -141 302 145 -171 0
312 310 -141 -302 -145 -171 0
-312 -310 -141 302 145 -171 0
-312 -310 -141 -302 -145 -171 0
314 141 -302 0
314 -141 302 0
-314 141 302 0
-314 -141 -302 0
313 145 -171 0
313 -145 171 0
-313 145 171 0
-313 -145 -171 0
315 312 -313 0
315 -312 313 0
-315 312 313 0
-315 -312 -313 0
316 -315 141 0
316 -315 313 0
-316 315 141 0
-316 315 313 0
316 315 -141 -313 0
-316 -315 -141 -313 0
317 141 -313 0
317 -141 313 0
-317 141 313 0
-317 -141 -313 0
318 319 -316 0
318 -316 317 0
-318 319 316 0
-318 316 317 0
318 -316 -141 0
-318 316 -141 0
318 -319 316 141 -317 0
-318 -319 -316 141 -317 0
319 -141 317 0
-319 141 317 0
-320 317 0
319 -320 -141 0
-319 -320 141 0
319 320 141 -317 0
-319 320 -141 -317 0
-321 317 0
319 -321 141 0
-319 -321 -141 0
319 321 -141 -317 0
-319 321 141 -317 0
322 -318 319 0
322 -318 317 0
-322 318 319 0
-322 318 317 0
322 318 -319 -317 0
-322 -318 -319 -317 0
323 319 -317 0
323 -319 317 0
-323 319 317 0
-323 -319 -317 0
324 -322 150 0
324 -322 171 0
-324 322 150 0
-324 322 171 0
324 -322 314 -154 0
324 -322 -314 154 0
-324 322 314 -154 0
-324 322 -314 154 0
324 322 -150 314 154 -171 0
324 322 -150 -314 -154 -171 0
-324 -322 -150 314 154 -171 0
-324 -322 -150 -314 -154 -171 0
326 150 -314 0
326 -150 314 0
-326 150 314 0
-326 -150 -314 0
325 154 -171 0
325 -154 171 0
-325 154 171 0
-325 -154 -171 0
327 -324 150 0
327 -324 325 0
-327 324 150 0
-327 324 325 0
327 324 -150 -325 0
-327 -324 -150 -325 0
328 150 -325 0
328 -150 325 0
-328 150 325 0
-328 -150 -325 0
329 330 -327 0
329 -327 328 0
-329 330 327 0
-329 327 328 0
329 -327 -150 0
-329 327 -150 0
329 -330 327 150 -328 0
-329 -330 -327 150 -328 0
330 -150 328 0
-330 150 328 0
-331 328 0
330 -331 -150 0
-330 -331 150 0
330 331 150 -328 0
-330 331 -150 -328 0
-332 328 0
330 -332 150 0
-330 -332 -150 0
330 332 -150 -328 0
-330 332 150 -328 0
333 -329 330 0
333 -329 328 0
-333 329 330 0
-333 329 328 0
333 329 -330 -328 0
-333 -329 -330 -328 0
334 330 -328 0
334 -330 328 0
-334 330 328 0
-334 -330 -328 0
335 -333 158 0
335 -333 171 0
-335 333 158 0
-335 333 171 0
335 -333 326 -162 0
335 -333 -326 162 0
-335 333 326 -162 0
-335 333 -326 162 0
335 333 -158 326 162 -171 0
335 333 -158 -326 -162 -171 0
-335 -333 -158 326 162 -171 0
-335 -333 -158 -326 -162 -171 0
337 158 -326 0
337 -158 326 0
-337 158 326 0
-337 -158 -326 0
336 162 -171 0
336 -162 171 0
-336 162 171 0
-336 -162 -171 0
338 -335 158 0
338 -335 336 0
-338 335 158 0
-338 335 336 0
338 335 -158 -336 0
-338 -335 -158 -336 0
339 158 -336 0
339 -158 336 0
-339 158 336 0
-339 -158 -336 0
340 341 -338 0
340 -338 339 0
-340 341 338 0
-340 338 339 0
340 -338 -158 0
-340 338 -158 0
340 -341 338 158 -339 0
-340 -341 -338 158 -339 0
341 -158 339 0
-341 158 339 0
-342 339 0
341 -342 -158 0
-341 -342 158 0
341 342 158 -339 0
-341 342 -158 -339 0
-343 339 0
341 -343 158 0
-341 -343 -158 0
341 343 -158 -339 0
-341 343 158 -339 0
344 -340 341 0
344 -340 339 0
-344 340 341 0
-344 340 339 0
344 340 -341 -339 0
-344 -340 -341 -339 0
345 341 -339 0
345 -341 339 0
-345 341 339 0
-345 -341 -339 0
-179 0
-191 0
-195 0
-202 0
-206 0
-214 0
-218 0
-225 0
-229 0
-237 0
-241 0
-249 0
-253 0
-260 0
-264 0
-272 0
-276 0
-284 0
-288 0
-295 0
-299 0
-307 0
-311 0
-319 0
-323 0
-330 0
-334 0
-341 0
-345 0
-337 0
-171 0
